
--- Job maxcutTest.gms Start 06/21/22 04:22:36 39.2.0 e0c5072f WEX-WEI x86 64bit/MS Windows
--- Applying:
    C:\GAMS\39\gmsprmNT.txt
--- GAMS Parameters defined
    Input C:\projects\OptimizationModels\MaxCut\maxcutTest.gms
    PageSize 0
    ScrDir C:\projects\OptimizationModels\MaxCut\225c\
    SysDir C:\GAMS\39\
    LogOption 3
    ErrMsg 1
    ErrorLog 99
    IDE 1
    LstTitleLeftAligned 1
Licensee: Eval License                                   G211206|0002CO-GEN
          Amsterdam Optimization Modeling Group,                     DCE378
          C:\Users\erwin\Documents\GAMS\gamslice.txt
          License Admin: Erwin Kalvelagen, info@amsterdamoptimization.com  
          Evaluation license: Not for commercial or production use
Processor information: 1 socket(s), 8 core(s), and 16 thread(s) available
GAMS 39.2.0   Copyright (C) 1987-2022 GAMS Development. All rights reserved
--- Starting compilation
--- maxcutTest.gms(16) 2 Mb
--- $echo File C:\projects\OptimizationModels\MaxCut\translate.awk
--- maxcutTest.gms(35) 2 Mb
--- call awk -f translate.awk g05_60.0 > g05_60.inc
--- maxcutTest.gms(41) 2 Mb
--- . g05_60.inc(888) 3 Mb
--- maxcutTest.gms(71) 3 Mb
--- $echo File C:\projects\OptimizationModels\MaxCut\cplex.opt
--- maxcutTest.gms(73) 3 Mb
--- Starting execution: elapsed 0:00:00.031
--- maxcutTest.gms(956) 4 Mb
--- Generating MIQCP model maxcut
--- maxcutTest.gms(957) 6 Mb
---   1 rows  61 columns  61 non-zeroes
---   3,543 nl-code  60 nl-non-zeroes
---   60 discrete-columns
--- Range statistics (absolute non-zero finite values)
--- RHS       [min, max] : [        NA,        NA] - Zero values observed as well
--- Bound     [min, max] : [ 1.000E+00, 1.000E+00] - Zero values observed as well
--- Matrix    [min, max] : [ 1.000E+00, 6.800E+01] - Zero values observed as well
--- maxcutTest.gms(957) 4 Mb
--- Executing CPLEX (Solvelink=2): elapsed 0:00:00.093

IBM ILOG CPLEX   39.2.0 e0c5072f Jun 2, 2022           WEI x86 64bit/MS Window

--- GAMS/Cplex Link licensed for continuous and discrete problems.

Reading parameter(s) from "C:\projects\OptimizationModels\MaxCut\cplex.opt"
>>  qtolin 0
Finished reading from "C:\projects\OptimizationModels\MaxCut\cplex.opt"

--- GMO setup time: 0.00s
--- GMO memory 0.55 Mb (peak 0.56 Mb)
--- Dictionary memory 0.00 Mb
--- Cplex 22.1.0.0 link memory 0.00 Mb (peak 0.04 Mb)
--- Starting Cplex

Version identifier: 22.1.0.0 | 2022-03-09 | 1a383f8ce
CPXPARAM_Advance                                 0
CPXPARAM_Simplex_Display                         2
CPXPARAM_MIP_Display                             4
CPXPARAM_MIP_Pool_Capacity                       0
CPXPARAM_Preprocessing_QToLin                    0
CPXPARAM_MIP_Tolerances_AbsMIPGap                0
CPXPARAM_MIP_Tolerances_MIPGap                   0
Generic callback                                 0x50
Found incumbent of value 34.000000 after 0.00 sec. (0.01 ticks)
Tried aggregator 1 time.
MIQP Presolve eliminated 0 rows and 2 columns.
Repairing indefinite Q in the objective.
Reduced MIQP has 0 rows, 59 columns, and 0 nonzeros.
Reduced MIQP has 59 binaries, 0 generals, 0 SOSs, and 0 indicators.
Reduced MIQP objective Q matrix has 1761 nonzeros.
Presolve time = 0.00 sec. (1.78 ticks)
Probing time = 0.00 sec. (0.00 ticks)
Tried aggregator 1 time.
Reduced MIQP has 0 rows, 59 columns, and 0 nonzeros.
Reduced MIQP has 59 binaries, 0 generals, 0 SOSs, and 0 indicators.
Reduced MIQP objective Q matrix has 1761 nonzeros.
Presolve time = 0.00 sec. (1.01 ticks)
Dual steepest-edge pricing selected.
Probing time = 0.00 sec. (0.00 ticks)
MIP emphasis: balance optimality and feasibility.
MIP search method: dynamic search.
Parallel mode: deterministic, using up to 16 threads.
Number of nonzeros in lower triangle of Q = 851
Using Approximate Minimum Degree ordering
Total time for automatic ordering = 0.00 sec. (0.04 ticks)
Summary statistics for factor of Q:
  Rows in Factor            = 59
  Integer space required    = 174
  Total non-zeros in factor = 1605
  Total FP ops to factor    = 56875
Tried aggregator 1 time.
No QP presolve or aggregator reductions.
Presolve time = 0.00 sec. (0.14 ticks)
Number of nonzeros in lower triangle of Q = 851
Using Approximate Minimum Degree ordering
Total time for automatic ordering = 0.00 sec. (0.04 ticks)
Summary statistics for factor of Q:
  Rows in Factor            = 59
  Integer space required    = 174
  Total non-zeros in factor = 1605
  Total FP ops to factor    = 56875
Tried aggregator 1 time.
QP Presolve added 0 rows and 59 columns.
Reduced QP has 59 rows, 118 columns, and 1590 nonzeros.
Reduced QP objective Q matrix has 59 nonzeros.
Presolve time = 0.00 sec. (0.25 ticks)
Parallel mode: using up to 16 threads for barrier.
Number of nonzeros in lower triangle of A*A' = 1685
Using Approximate Minimum Degree ordering
Total time for automatic ordering = 0.00 sec. (0.06 ticks)
Summary statistics for Cholesky factor:
  Threads                   = 16
  Rows in Factor            = 59
  Integer space required    = 59
  Total non-zeros in factor = 1770
  Total FP ops to factor    = 70210
 Itn      Primal Obj        Dual Obj  Prim Inf Upper Inf  Dual Inf          
   0   2.1281016e+03   6.1224947e+04  9.55e+01  5.90e+01  2.50e+02
   1   5.6124635e+02   1.6516539e+04  2.14e-14  0.00e+00  7.29e-12
   2   5.6127657e+02   6.6216100e+02  8.49e-15  1.89e-15  1.79e-12
   3   5.6204437e+02   5.6961468e+02  9.10e-15  2.00e-15  3.61e-13
   4   5.6330869e+02   5.6579098e+02  8.99e-15  1.80e-15  3.18e-13
   5   5.6345846e+02   5.6386149e+02  9.27e-15  1.97e-15  3.64e-13
   6   5.6348639e+02   5.6351291e+02  1.53e-14  1.40e-15  2.70e-13
   7   5.6348805e+02   5.6348851e+02  4.35e-14  1.61e-15  2.44e-13
   8   5.6348812e+02   5.6348812e+02  3.55e-13  2.14e-15  3.14e-13
   9   5.6348812e+02   5.6348812e+02  2.02e-13  1.64e-15  2.97e-13
  10   5.6348812e+02   5.6348812e+02  6.45e-14  2.18e-15  3.26e-13
Barrier time = 0.00 sec. (1.04 ticks)

Total time on 16 threads = 0.00 sec. (1.18 ticks)
Barrier time = 0.00 sec. (1.05 ticks)
Number of nonzeros in lower triangle of Q = 851
Using Approximate Minimum Degree ordering
Total time for automatic ordering = 0.00 sec. (0.04 ticks)
Summary statistics for factor of Q:
  Rows in Factor            = 59
  Integer space required    = 174
  Total non-zeros in factor = 1605
  Total FP ops to factor    = 56875

QP crossover.
  Primal and Dual:  Fixing 2 variables.
  Primal:  Fixed no variables.
  Dual  :  Pushed 0, exchanged 2.
Total crossover time = 0.00 sec. (0.70 ticks)

Total time on 16 threads = 0.00 sec. (1.88 ticks)
Root relaxation solution time = 0.00 sec. (1.89 ticks)

        Nodes                                         Cuts/
   Node  Left     Objective  IInf  Best Integer    Best Bound    ItCnt     Gap

*     0+    0                           34.0000     1770.0000              --- 
Found incumbent of value 34.000000 after 0.00 sec. (4.81 ticks)
      0     0      563.4881    54       34.0000      563.4881       10     --- 
*     0+    0                          526.0000      563.4881             7.13%
Found incumbent of value 526.000000 after 0.00 sec. (6.12 ticks)
*     0+    0                          535.0000      563.4881             5.32%
Found incumbent of value 535.000000 after 0.00 sec. (11.67 ticks)
*     0+    0                          536.0000      563.4881             5.13%
Found incumbent of value 536.000000 after 0.00 sec. (14.02 ticks)
      0     2      563.4881    54      536.0000      560.2552       10    4.53%
Elapsed time = 0.02 sec. (16.88 ticks, tree = 0.02 MB)

Performing restart 1

Repeating presolve.
Tried aggregator 1 time.
Reduced MIQP has 0 rows, 59 columns, and 0 nonzeros.
Reduced MIQP has 59 binaries, 0 generals, 0 SOSs, and 0 indicators.
Reduced MIQP objective Q matrix has 1761 nonzeros.
Presolve time = 0.02 sec. (1.00 ticks)
Tried aggregator 1 time.
Reduced MIQP has 0 rows, 59 columns, and 0 nonzeros.
Reduced MIQP has 59 binaries, 0 generals, 0 SOSs, and 0 indicators.
Reduced MIQP objective Q matrix has 1761 nonzeros.
Presolve time = 0.00 sec. (1.00 ticks)
Represolve time = 0.02 sec. (2.16 ticks)
Dual steepest-edge pricing selected.
Number of nonzeros in lower triangle of Q = 851
Using Approximate Minimum Degree ordering
Total time for automatic ordering = 0.00 sec. (0.04 ticks)
Summary statistics for factor of Q:
  Rows in Factor            = 59
  Integer space required    = 174
  Total non-zeros in factor = 1605
  Total FP ops to factor    = 56875
Tried aggregator 1 time.
No QP presolve or aggregator reductions.
Presolve time = 0.00 sec. (0.14 ticks)
Number of nonzeros in lower triangle of Q = 851
Using Approximate Minimum Degree ordering
Total time for automatic ordering = 0.00 sec. (0.04 ticks)
Summary statistics for factor of Q:
  Rows in Factor            = 59
  Integer space required    = 174
  Total non-zeros in factor = 1605
  Total FP ops to factor    = 56875
Tried aggregator 1 time.
QP Presolve added 0 rows and 59 columns.
Reduced QP has 59 rows, 118 columns, and 1590 nonzeros.
Reduced QP objective Q matrix has 59 nonzeros.
Presolve time = 0.00 sec. (0.25 ticks)
Parallel mode: using up to 16 threads for barrier.
Number of nonzeros in lower triangle of A*A' = 1685
Using Approximate Minimum Degree ordering
Total time for automatic ordering = 0.00 sec. (0.06 ticks)
Summary statistics for Cholesky factor:
  Threads                   = 16
  Rows in Factor            = 59
  Integer space required    = 59
  Total non-zeros in factor = 1770
  Total FP ops to factor    = 70210
 Itn      Primal Obj        Dual Obj  Prim Inf Upper Inf  Dual Inf          
   0   2.1281016e+03   6.1224947e+04  9.55e+01  5.90e+01  2.50e+02
   1   5.6124635e+02   1.6516539e+04  2.14e-14  0.00e+00  7.29e-12
   2   5.6127657e+02   6.6216100e+02  8.49e-15  1.89e-15  1.79e-12
   3   5.6204437e+02   5.6961468e+02  9.10e-15  2.00e-15  3.61e-13
   4   5.6330869e+02   5.6579098e+02  8.99e-15  1.80e-15  3.18e-13
   5   5.6345846e+02   5.6386149e+02  9.27e-15  1.97e-15  3.64e-13
   6   5.6348639e+02   5.6351291e+02  1.53e-14  1.40e-15  2.70e-13
   7   5.6348805e+02   5.6348851e+02  4.35e-14  1.61e-15  2.44e-13
   8   5.6348812e+02   5.6348812e+02  3.55e-13  2.14e-15  3.14e-13
   9   5.6348812e+02   5.6348812e+02  2.02e-13  1.64e-15  2.97e-13
  10   5.6348812e+02   5.6348812e+02  6.45e-14  2.18e-15  3.26e-13
Barrier time = 0.02 sec. (1.04 ticks)

Total time on 16 threads = 0.02 sec. (1.18 ticks)
Barrier time = 0.02 sec. (1.05 ticks)
Number of nonzeros in lower triangle of Q = 851
Using Approximate Minimum Degree ordering
Total time for automatic ordering = 0.00 sec. (0.04 ticks)
Summary statistics for factor of Q:
  Rows in Factor            = 59
  Integer space required    = 174
  Total non-zeros in factor = 1605
  Total FP ops to factor    = 56875

QP crossover.
  Primal and Dual:  Fixing 2 variables.
  Primal:  Fixed no variables.
  Dual  :  Pushed 0, exchanged 2.
Total crossover time = 0.00 sec. (0.70 ticks)

Total time on 16 threads = 0.02 sec. (1.88 ticks)
  23033  9519      541.3048    27      536.0000      550.1310    51961    2.64%
  55912 30681      538.3371    36      536.0000      547.7668   141531    2.20%
  74374 42442        cutoff            536.0000      547.7668   193960    2.20%
  92743 53414      539.3453    28      536.0000      547.7668   245357    2.20%
 111275 62895      540.6978    36      536.0000      547.7668   291965    2.20%
 129406 70974      537.3068    25      536.0000      547.7668   332889    2.20%
 147920 80880      537.4770    27      536.0000      547.7668   385260    2.20%
 165336 89681      541.5287    35      536.0000      547.7668   434341    2.20%
 188376 98793      542.5922    36      536.0000      547.7668   487828    2.20%
 300002 140043      537.1657    39      536.0000      547.7399   781438    2.19%
Elapsed time = 4.38 sec. (3116.41 ticks, tree = 27.74 MB)
 451814 169347      538.3066    30      536.0000      540.4367  1150434    0.83%
 604844 170364      538.9131    38      536.0000      539.2741  1556838    0.61%
 752313 140167      537.4006    36      536.0000      538.3261  1936072    0.43%
 906212 67102        cutoff            536.0000      537.0890  2314161    0.20%

Root node processing (before b&c):
  Real time             =    0.02 sec. (16.68 ticks)
Parallel b&c, 16 threads:
  Real time             =   13.45 sec. (7546.76 ticks)
  Sync time (average)   =    5.26 sec.
  Wait time (average)   =    0.01 sec.
                          ------------
Total (root+branch&cut) =   13.47 sec. (7563.43 ticks)

--- MIQP status (101): integer optimal solution.
--- Cplex Time: 13.47sec (det. 7563.43 ticks)

--- Fixing integer variables and solving final QP...

Version identifier: 22.1.0.0 | 2022-03-09 | 1a383f8ce
CPXPARAM_Advance                                 2
CPXPARAM_Simplex_Display                         2
CPXPARAM_MIP_Display                             4
CPXPARAM_MIP_Pool_Capacity                       0
CPXPARAM_Preprocessing_QToLin                    0
CPXPARAM_MIP_Tolerances_AbsMIPGap                0
CPXPARAM_MIP_Tolerances_MIPGap                   0
Number of nonzeros in lower triangle of Q = 885
Using Approximate Minimum Degree ordering
Total time for automatic ordering = 0.00 sec. (0.04 ticks)
Summary statistics for factor of Q:
  Rows in Factor            = 60
  Integer space required    = 178
  Total non-zeros in factor = 1663
  Total FP ops to factor    = 60059
Note: Q in objective is not positive semi-definite.
Tried aggregator 1 time.
QP Presolve eliminated 0 rows and 61 columns.
All rows and columns eliminated.
Presolve time = 0.00 sec. (0.21 ticks)

--- Fixed MIQP status (1): optimal.
--- Cplex Time: 0.00sec (det. 0.27 ticks)


Proven optimal solution
MIP Solution:          536.000000    (2492063 iterations, 986565 nodes)
Final Solve:           536.000000    (0 iterations)

Best possible:         536.000000
Absolute gap:            0.000000
Relative gap:            0.000000

--- Reading solution for model maxcut
*** Status: Normal completion
--- Job maxcutTest.gms Stop 06/21/22 04:22:50 elapsed 0:00:13.646
